Gurobi 12.0.3:   lim:time = 54000
  mip:bestbound = 1
Set parameter LogToConsole to value 1
  tech:outlev = 1
Set parameter InfUnbdInfo to value 1
Gurobi Optimizer version 12.0.3 build v12.0.3rc0 (win64 - Windows 11.0 (26100.2))

CPU model: 12th Gen Intel(R) Core(TM) i7-12700, instruction set [SSE2|AVX|AVX2]
Thread count: 12 physical cores, 20 logical processors, using up to 20 threads

Non-default parameters:
TimeLimit  54000
InfUnbdInfo  1

Optimize a model with 462 rows, 865 columns and 3986 nonzeros
Model fingerprint: 0x4a0d6600
Model has 8 quadratic objective terms
Model has 11 quadratic constraints
Model has 256 simple general constraints
  256 AND
Variable types: 21 continuous, 844 integer (0 binary)
Coefficient statistics:
  Matrix range     [1e+00, 1e+05]
  QMatrix range    [9e+00, 2e+01]
  QLMatrix range   [7e+00, 2e+01]
  Objective range  [3e+01, 3e+02]
  QObjective range [2e+00, 5e+00]
  Bounds range     [1e+00, 1e+00]
  RHS range        [1e+00, 1e+05]
  QRHS range       [8e+01, 1e+02]
Presolve added 594 rows and 0 columns
Presolve removed 0 rows and 95 columns
Presolve time: 0.02s
Presolved: 1571 rows, 1283 columns, 6967 nonzeros
Variable types: 18 continuous, 1265 integer (1265 binary)

Root relaxation: objective 1.618683e+02, 41 iterations, 0.00 seconds (0.00 work units)

    Nodes    |    Current Node    |     Objective Bounds      |     Work
 Expl Unexpl |  Obj  Depth IntInf | Incumbent    BestBd   Gap | It/Node Time

     0     0  161.86835    0   21          -  161.86835      -     -    0s
H    0     0                     920.4300000  161.86835  82.4%     -    0s
H    0     0                     918.3000000  161.86835  82.4%     -    0s
H    0     0                     847.5800000  184.49325  78.2%     -    0s
     0     0  184.49326    0   21  847.58000  184.49326  78.2%     -    0s
H    0     0                     475.2800000  184.49326  61.2%     -    0s
     0     0  184.49518    0   21  475.28000  184.49518  61.2%     -    0s
     0     0  185.40604    0   20  475.28000  185.40604  61.0%     -    0s
     0     0  185.42226    0   17  475.28000  185.42226  61.0%     -    0s
     0     0  216.85924    0   22  475.28000  216.85924  54.4%     -    0s
     0     0  223.63835    0   29  475.28000  223.63835  52.9%     -    0s
     0     0  234.94000    0   23  475.28000  234.94000  50.6%     -    0s
     0     0  234.94000    0   23  475.28000  234.94000  50.6%     -    0s
     0     0  234.94000    0   21  475.28000  234.94000  50.6%     -    0s
     0     0  234.94000    0   21  475.28000  234.94000  50.6%     -    0s
     0     0  234.94000    0   20  475.28000  234.94000  50.6%     -    0s
     0     0  234.94000    0   24  475.28000  234.94000  50.6%     -    0s
     0     0  234.94000    0   23  475.28000  234.94000  50.6%     -    0s
     0     0  234.94000    0   36  475.28000  234.94000  50.6%     -    0s
     0     0  234.94000    0   17  475.28000  234.94000  50.6%     -    0s
     0     0  234.94000    0   32  475.28000  234.94000  50.6%     -    0s
     0     0  234.94000    0   28  475.28000  234.94000  50.6%     -    0s
H    0     0                     467.8400000  234.94000  49.8%     -    0s
     0     0  234.94000    0   38  467.84000  234.94000  49.8%     -    0s
     0     0  234.99753    0   42  467.84000  234.99753  49.8%     -    0s
H    0     0                     465.4100000  234.99753  49.5%     -    0s
     0     0  235.84000    0   43  465.41000  235.84000  49.3%     -    0s
H    0     0                     448.1900000  235.96835  47.4%     -    0s
H    0     0                     447.5000000  235.96835  47.3%     -    0s
     0     0  235.96835    0   27  447.50000  235.96835  47.3%     -    0s
     0     0  237.82000    0   27  447.50000  237.82000  46.9%     -    0s
     0     0  238.64000    0   21  447.50000  238.64000  46.7%     -    0s
     0     0  238.64000    0   26  447.50000  238.64000  46.7%     -    0s
     0     0  238.64000    0   15  447.50000  238.64000  46.7%     -    0s
     0     0  238.64000    0   32  447.50000  238.64000  46.7%     -    0s
     0     0  238.64000    0   38  447.50000  238.64000  46.7%     -    0s
     0     0  238.64000    0   31  447.50000  238.64000  46.7%     -    0s
     0     0  238.64000    0   39  447.50000  238.64000  46.7%     -    0s
     0     0  238.64000    0   38  447.50000  238.64000  46.7%     -    0s
     0     0  238.64000    0   41  447.50000  238.64000  46.7%     -    0s
     0     0  238.64000    0   39  447.50000  238.64000  46.7%     -    0s
     0     0  238.64000    0   26  447.50000  238.64000  46.7%     -    0s
H    0     0                     446.6000000  238.64000  46.6%     -    0s
     0     0  238.64000    0   27  446.60000  238.64000  46.6%     -    0s
     0     0  239.52116    0   28  446.60000  239.52116  46.4%     -    0s
     0     0  239.52116    0   27  446.60000  239.52116  46.4%     -    0s
     0     2  239.72000    0   27  446.60000  239.72000  46.3%     -    0s
*  195   161              12     428.5100000  240.32000  43.9%  10.2    0s
*  757   307              19     375.9500000  252.80648  32.8%   9.3    0s
*  795   307              21     375.1100000  252.80648  32.6%   9.3    0s
*  848   307              17     373.5200000  252.80648  32.3%   9.2    0s

Cutting planes:
  Learned: 5
  Gomory: 3
  Cover: 1
  Implied bound: 42
  MIR: 14
  StrongCG: 3
  Inf proof: 4
  Zero half: 7
  RLT: 46
  BQP: 1

Explored 3157 nodes (27865 simplex iterations) in 1.21 seconds (0.60 work units)
Thread count was 20 (of 20 available processors)

Solution count 10: 373.52 375.11 375.95 ... 475.28

Optimal solution found (tolerance 1.00e-04)
Best objective 3.735200000000e+02, best bound 3.735200000000e+02, gap 0.0000%

AMPL MP initial flat model has 609 variables (0 integer, 588 binary);
Objectives: 1 quadratic; 
Constraints:  462 linear; 11 quadratic;
Logical expressions:  256 and;

AMPL MP final model has 865 variables (0 integer, 844 binary);
Objectives: 1 quadratic; 
Constraints:  462 linear; 11 quadratic;
Logical expressions:  256 and;


-----RESULTS INFO-----
running_time:  1.2810000000000001
TC.best_bound:  373.5199999999999
TC:  373.52000000000004
MIP Gap (%):  3.0436613225962736e-14
=== Vehicle Routes ===
Vehicle 2: 0 → 1
Vehicle 2: 1 → 2
Vehicle 2: 2 → 11
Vehicle 2: 11 → 17
Vehicle 2: 17 → 0

=== Full Vehicle Routes ===
Vehicle 1: 0 → 0
Vehicle 2: 0 → 1 → 2 → 11 → 17 → 0
Arc used by MRT line: y variables:
MRT used: 11 → 12
Customer assigment to PL: u variables:
3 11
4 12
5 12
6 12
Node is served by regular vehicle: g variables:
1
2
11
17
Customer assigment to Home delivery: gm variables:
1
2
Customer's demand delivered to PL: l variables:
3
4
5
6
